31 37 44 50 2 9 6 75 24 57 28 53 72 79 40 41 26 55 13 68 17 27 54 64 5 7 74 76 32 49 8 18 63 73 29 52 15 46 66 80 1 22 59 20 34 47 61 25 36 45 56 23 35 58 39 42 14 67 10 71 19 62 30 51 3 78 12 69 33 48 16 21 60 65 38 43 11 70 4 77
